p cnf 211 324
15 20 41 51 52 0
15 20 41 51 -52 0
15 20 41 -51 52 0
15 20 41 -51 -52 0
-15 20 41 53 54 0
-15 20 41 53 -54 0
-15 20 41 -53 54 0
-15 20 41 -53 -54 0
7 8 -41 55 56 0
7 8 -41 55 -56 0
7 8 -41 -55 56 0
7 8 -41 -55 -56 0
7 -8 -41 57 58 0
7 -8 -41 57 -58 0
7 -8 -41 -57 58 0
7 -8 -41 -57 -58 0
-7 42 50 59 60 0
-7 42 50 59 -60 0
-7 42 50 -59 60 0
-7 42 50 -59 -60 0
-7 -42 50 61 62 0
-7 -42 50 61 -62 0
-7 -42 50 -61 62 0
-7 -42 50 -61 -62 0
22 35 -50 63 64 0
22 35 -50 63 -64 0
22 35 -50 -63 64 0
22 35 -50 -63 -64 0
22 -35 45 65 66 0
22 -35 45 65 -66 0
22 -35 45 -65 66 0
22 -35 45 -65 -66 0
18 -22 45 67 68 0
18 -22 45 67 -68 0
18 -22 45 -67 68 0
18 -22 45 -67 -68 0
-18 -22 45 69 70 0
-18 -22 45 69 -70 0
-18 -22 45 -69 70 0
-18 -22 45 -69 -70 0
33 -45 -50 71 72 0
33 -45 -50 71 -72 0
33 -45 -50 -71 72 0
33 -45 -50 -71 -72 0
-7 -33 -50 73 74 0
-7 -33 -50 73 -74 0
-7 -33 -50 -73 74 0
-7 -33 -50 -73 -74 0
19 -20 21 75 76 0
19 -20 21 75 -76 0
19 -20 21 -75 76 0
19 -20 21 -75 -76 0
-20 21 -41 77 78 0
-20 21 -41 77 -78 0
-20 21 -41 -77 78 0
-20 21 -41 -77 -78 0
19 -20 -21 79 80 0
19 -20 -21 79 -80 0
19 -20 -21 -79 80 0
19 -20 -21 -79 -80 0
1 14 36 81 82 0
1 14 36 81 -82 0
1 14 36 -81 82 0
1 14 36 -81 -82 0
-1 14 36 83 84 0
-1 14 36 83 -84 0
-1 14 36 -83 84 0
-1 14 36 -83 -84 0
13 -14 36 85 86 0
13 -14 36 85 -86 0
13 -14 36 -85 86 0
13 -14 36 -85 -86 0
3 13 -36 87 88 0
3 13 -36 87 -88 0
3 13 -36 -87 88 0
3 13 -36 -87 -88 0
-3 5 -36 89 90 0
-3 5 -36 89 -90 0
-3 5 -36 -89 90 0
-3 5 -36 -89 -90 0
-3 -5 13 91 92 0
-3 -5 13 91 -92 0
-3 -5 13 -91 92 0
-3 -5 13 -91 -92 0
4 44 49 93 94 0
4 44 49 93 -94 0
4 44 49 -93 94 0
4 44 49 -93 -94 0
-4 17 49 95 96 0
-4 17 49 95 -96 0
-4 17 49 -95 96 0
-4 17 49 -95 -96 0
-4 -17 44 97 98 0
-4 -17 44 97 -98 0
-4 -17 44 -97 98 0
-4 -17 44 -97 -98 0
-13 31 -44 99 100 0
-13 31 -44 99 -100 0
-13 31 -44 -99 100 0
-13 31 -44 -99 -100 0
-13 -31 -44 101 102 0
-13 -31 -44 101 -102 0
-13 -31 -44 -101 102 0
-13 -31 -44 -101 -102 0
23 33 -49 103 104 0
23 33 -49 103 -104 0
23 33 -49 -103 104 0
23 33 -49 -103 -104 0
23 -33 -49 105 106 0
23 -33 -49 105 -106 0
23 -33 -49 -105 106 0
23 -33 -49 -105 -106 0
-19 37 42 107 108 0
-19 37 42 107 -108 0
-19 37 42 -107 108 0
-19 37 42 -107 -108 0
-19 37 -42 109 110 0
-19 37 -42 109 -110 0
-19 37 -42 -109 110 0
-19 37 -42 -109 -110 0
-23 29 -37 111 112 0
-23 29 -37 111 -112 0
-23 29 -37 -111 112 0
-23 29 -37 -111 -112 0
-23 -29 -37 113 114 0
-23 -29 -37 113 -114 0
-23 -29 -37 -113 114 0
-23 -29 -37 -113 -114 0
-24 -26 32 115 116 0
-24 -26 32 115 -116 0
-24 -26 32 -115 116 0
-24 -26 32 -115 -116 0
2 -12 -31 117 118 0
2 -12 -31 117 -118 0
2 -12 -31 -117 118 0
2 -12 -31 -117 -118 0
17 28 40 119 120 0
17 28 40 119 -120 0
17 28 40 -119 120 0
17 28 40 -119 -120 0
-15 -17 40 121 122 0
-15 -17 40 121 -122 0
-15 -17 40 -121 122 0
-15 -17 40 -121 -122 0
2 28 47 123 124 0
2 28 47 123 -124 0
2 28 47 -123 124 0
2 28 47 -123 -124 0
26 -28 -39 125 126 0
26 -28 -39 125 -126 0
26 -28 -39 -125 126 0
26 -28 -39 -125 -126 0
21 -26 -28 127 128 0
21 -26 -28 127 -128 0
21 -26 -28 -127 128 0
21 -26 -28 -127 -128 0
16 24 29 129 130 0
16 24 29 129 -130 0
16 24 29 -129 130 0
16 24 29 -129 -130 0
12 -34 -39 131 132 0
12 -34 -39 131 -132 0
12 -34 -39 -131 132 0
12 -34 -39 -131 -132 0
10 31 40 133 134 0
10 31 40 133 -134 0
10 31 40 -133 134 0
10 31 40 -133 -134 0
-6 -32 35 135 136 0
-6 -32 35 135 -136 0
-6 -32 35 -135 136 0
-6 -32 35 -135 -136 0
16 -24 34 137 138 0
16 -24 34 137 -138 0
16 -24 34 -137 138 0
16 -24 34 -137 -138 0
-24 -31 38 139 140 0
-24 -31 38 139 -140 0
-24 -31 38 -139 140 0
-24 -31 38 -139 -140 0
-16 -24 -38 141 142 0
-16 -24 -38 141 -142 0
-16 -24 -38 -141 142 0
-16 -24 -38 -141 -142 0
-2 -10 -47 143 144 0
-2 -10 -47 143 -144 0
-2 -10 -47 -143 144 0
-2 -10 -47 -143 -144 0
4 -16 27 145 146 0
4 -16 27 145 -146 0
4 -16 27 -145 146 0
4 -16 27 -145 -146 0
-1 24 -30 147 148 0
-1 24 -30 147 -148 0
-1 24 -30 -147 148 0
-1 24 -30 -147 -148 0
-18 26 -46 149 150 0
-18 26 -46 149 -150 0
-18 26 -46 -149 150 0
-18 26 -46 -149 -150 0
27 30 -45 151 152 0
27 30 -45 151 -152 0
27 30 -45 -151 152 0
27 30 -45 -151 -152 0
4 -14 -44 153 154 0
4 -14 -44 153 -154 0
4 -14 -44 -153 154 0
4 -14 -44 -153 -154 0
-29 43 47 155 156 0
-29 43 47 155 -156 0
-29 43 47 -155 156 0
-29 43 47 -155 -156 0
-8 -10 -46 157 158 0
-8 -10 -46 157 -158 0
-8 -10 -46 -157 158 0
-8 -10 -46 -157 -158 0
-11 39 -43 159 160 0
-11 39 -43 159 -160 0
-11 39 -43 -159 160 0
-11 39 -43 -159 -160 0
-11 -40 -43 161 162 0
-11 -40 -43 161 -162 0
-11 -40 -43 -161 162 0
-11 -40 -43 -161 -162 0
6 -21 26 163 164 0
6 -21 26 163 -164 0
6 -21 26 -163 164 0
6 -21 26 -163 -164 0
8 -25 46 165 166 0
8 -25 46 165 -166 0
8 -25 46 -165 166 0
8 -25 46 -165 -166 0
-25 -38 46 167 168 0
-25 -38 46 167 -168 0
-25 -38 46 -167 168 0
-25 -38 46 -167 -168 0
10 -46 -47 169 170 0
10 -46 -47 169 -170 0
10 -46 -47 -169 170 0
10 -46 -47 -169 -170 0
25 -32 -40 171 172 0
25 -32 -40 171 -172 0
25 -32 -40 -171 172 0
25 -32 -40 -171 -172 0
5 6 -40 173 174 0
5 6 -40 173 -174 0
5 6 -40 -173 174 0
5 6 -40 -173 -174 0
11 15 16 175 176 0
11 15 16 175 -176 0
11 15 16 -175 176 0
11 15 16 -175 -176 0
12 39 43 177 178 0
12 39 43 177 -178 0
12 39 43 -177 178 0
12 39 43 -177 -178 0
5 11 32 179 180 0
5 11 32 179 -180 0
5 11 32 -179 180 0
5 11 32 -179 -180 0
-5 17 32 181 182 0
-5 17 32 181 -182 0
-5 17 32 -181 182 0
-5 17 32 -181 -182 0
-12 -40 -48 183 184 0
-12 -40 -48 183 -184 0
-12 -40 -48 -183 184 0
-12 -40 -48 -183 -184 0
-2 18 -30 185 186 0
-2 18 -30 185 -186 0
-2 18 -30 -185 186 0
-2 18 -30 -185 -186 0
3 10 -34 187 188 0
3 10 -34 187 -188 0
3 10 -34 -187 188 0
3 10 -34 -187 -188 0
-2 -9 30 189 190 0
-2 -9 30 189 -190 0
-2 -9 30 -189 190 0
-2 -9 30 -189 -190 0
-3 -5 -28 191 192 0
-3 -5 -28 191 -192 0
-3 -5 -28 -191 192 0
-3 -5 -28 -191 -192 0
-9 26 48 193 194 0
-9 26 48 193 -194 0
-9 26 48 -193 194 0
-9 26 48 -193 -194 0
22 -27 -48 195 196 0
22 -27 -48 195 -196 0
22 -27 -48 -195 196 0
22 -27 -48 -195 -196 0
1 9 38 197 198 0
1 9 38 197 -198 0
1 9 38 -197 198 0
1 9 38 -197 -198 0
3 -6 48 199 200 0
3 -6 48 199 -200 0
3 -6 48 -199 200 0
3 -6 48 -199 -200 0
1 -6 34 201 202 0
1 -6 34 201 -202 0
1 -6 34 -201 202 0
1 -6 34 -201 -202 0
15 -35 48 203 204 0
15 -35 48 203 -204 0
15 -35 48 -203 204 0
15 -35 48 -203 -204 0
15 26 -27 205 206 0
15 26 -27 205 -206 0
15 26 -27 -205 206 0
15 26 -27 -205 -206 0
-9 -27 207 208 209 0
-9 -27 207 208 -209 0
-9 -27 207 -208 209 0
-9 -27 207 -208 -209 0
-9 -27 -207 208 209 0
-9 -27 -207 208 -209 0
-9 -27 -207 -208 209 0
-9 -27 -207 -208 -209 0
1 9 25 210 211 0
1 9 25 210 -211 0
1 9 25 -210 211 0
1 9 25 -210 -211 0
